5 5
6 2 5 17 3 2 4 4 15 3 17 1 3 2 16 3 3 10 1 13 5 5 4 3 9 1 15 5 2 4 5 5 4 15 3 16 1 5 5 3 2 8 1 5 4
5 1 4 2 1 4 17 4 1 8 4 10 5 15 2 11 1 5 18 1 5 17
5 4 5 10 2 14 1 6 3 16 3 4 2 5 14 3 9 2 3 14 1 9 5 4 2 3 11 2 3 1 13 5 20 1 5 10
8 5 3 14 2 18 4 10 5 11 1 8 1 5 11 3 2 2 3 12 1 11 3 1 11 5 4 3 11 4 4 3 3 9 5 7 2 7 1 5 14 4 3 6 4 6 5 5 2 11 2 3 9 5 3
6 2 3 4 4 2 4 2 18 3 17 4 12 1 2 4 3 18 1 12 2 15 5 7 4 1 12 3 13 2 5 4 20 2 3 8 2 19 3 4 3 1 10 3 7